(set-logic HORN)
(set-info :source |
  Benchmark: test_safe_2019/termination/map.5.ml
  Generated by MoCHi
|)
(set-info :status unknown)
(declare-fun |fail_15578[0:0]| ( Int) Bool)
(declare-fun |map[0:9][0:5][0:0]| ( Bool  Int  Int  Int  Int  Bool  Int  Int  Int  Bool  Int  Int  Int  Int  Int) Bool)
(declare-fun |map[0:9][0:4]| ( Bool  Int  Int  Int  Int  Bool  Int  Int  Int  Bool  Int  Int  Int  Int) Bool)
(declare-fun |map[0:14]| ( Bool  Int  Int  Int  Int  Bool  Int  Int  Int  Bool  Int  Int  Int  Int) Bool)
(assert (not (exists ((x0 Int)) (|fail_15578[0:0]| x0))))
(assert (forall ((x0 Int)(x3 Int)(x4 Int)(x5 Int)(x6 Int)) (=> (|map[0:9][0:4]| false 0 0 0 0 false 0 0 0 true x3 x4 x5 x6) (|fail_15578[0:0]| x0))))
(assert (forall ((x12 Bool)(x11 Int)(x10 Int)(x9 Int)(x0 Int)(x8 Bool)(x7 Int)(x6 Int)(x5 Int)(x14 Bool)(x15 Int)(x16 Int)(x17 Int)(x18 Int)(x13 Int)(x4 Bool)(x1 Int)(x2 Int)(x3 Int)(var304 Int)(var305 Int)) (=> (and (|map[0:9][0:4]| x4 x1 x2 x3 0 x4 x1 x2 x3 x14 x15 x16 x17 x18) (and (|map[0:14]| x12 x11 x10 x9 x0 x8 x7 x6 x5 x4 x1 x2 x3 x13) (and (|map[0:9][0:5][0:0]| x12 x11 x10 x9 x0 x8 x7 x6 x5 x4 x1 x2 x3 var304 var305) (not (= x13 0))))) (|map[0:9][0:4]| x12 x11 x10 x9 x0 x8 x7 x6 x5 x14 x15 x16 x17 x18))))
(assert (forall ((x12 Bool)(x11 Int)(x10 Int)(x9 Int)(x0 Int)(x8 Bool)(x7 Int)(x6 Int)(x5 Int)(x14 Bool)(x15 Int)(x16 Int)(x17 Int)(x18 Int)(x13 Int)) (=> (and (|map[0:14]| x12 x11 x10 x9 x0 x8 x7 x6 x5 x14 x15 x16 x17 x13) (not (= x13 0))) (|map[0:9][0:4]| x12 x11 x10 x9 x0 x8 x7 x6 x5 x14 x15 x16 x17 x18))))
(assert (forall ((x14 Bool)(x11 Int)(x12 Int)(x13 Int)(x0 Int)(x8 Bool)(x6 Int)(x4 Int)(x2 Int)(x9 Bool)(x7 Int)(x5 Int)(x3 Int)(x1 Int)(x24 Int)(x23 Bool)(x22 Int)(x21 Int)(x20 Int)(x10 Int)(x19 Bool)(x18 Int)(x17 Int)(x16 Int)(x15 Int)(x25 Int)) (=> (and (|map[0:14]| x23 x22 x21 x20 x10 x19 x18 x17 x16 x14 x11 x12 x13 x24) (and (|map[0:9][0:5][0:0]| x23 x22 x21 x20 x10 x19 x18 x17 x16 x14 x11 x12 x13 x15 x25) (and (= x0 0) (and (= (+ 1 x1) x24) (and (not (= x24 0)) (and (= x6 x11) (and (= x6 x7) (and (= x4 x12) (and (= x4 x5) (and (= x2 x13) (and (= x2 x3) (and (= x8 x14) (= x8 x9))))))))))))) (|map[0:14]| x14 x11 x12 x13 x0 x8 x6 x4 x2 x9 x7 x5 x3 x1))))
(assert (forall ((x7 Bool)(x8 Int)(x9 Int)(x10 Int)(x0 Int)(x4 Bool)(x3 Int)(x2 Int)(x1 Int)(x11 Bool)(x12 Int)(x13 Int)(x14 Int)(x15 Int)(x16 Int)) (=> (and (|map[0:9][0:4]| x7 x8 x9 x10 0 x7 x8 x9 x10 x11 x12 x13 x14 x15) (and (= x0 0) (and (= x8 0) (and (= x9 0) (and (= x10 0) (and (= (+ 3 x15) x16) (and (= x3 x8) (and (= x2 x9) (and (= x1 x10) (and (not x7) (and (not x11) (not x4)))))))))))) (|map[0:9][0:5][0:0]| x7 x8 x9 x10 x0 x4 x3 x2 x1 x11 x12 x13 x14 x15 x16))))
(assert (forall ((x12 Bool)(x11 Int)(x10 Int)(x9 Int)(x0 Int)(x8 Bool)(x7 Int)(x6 Int)(x5 Int)(x14 Bool)(x15 Int)(x16 Int)(x17 Int)(x18 Int)(x13 Int)) (=> (and (|map[0:14]| x12 x11 x10 x9 x0 x8 x7 x6 x5 x14 x15 x16 x17 x13) (not (= x13 0))) (|map[0:9][0:4]| x12 x11 x10 x9 x0 x8 x7 x6 x5 x14 x15 x16 x17 x18))))
(assert (forall ((x12 Bool)(x9 Int)(x10 Int)(x11 Int)(x0 Int)(x7 Bool)(x5 Int)(x3 Int)(x1 Int)(x8 Bool)(x6 Int)(x4 Int)(x2 Int)(x14 Int)) (=> (and (= x0 0) (and (= x9 0) (and (= x10 0) (and (= x11 0) (and (>= x14 0) (and (= x5 x9) (and (= x5 x6) (and (= x3 x10) (and (= x3 x4) (and (= x1 x11) (and (= x1 x2) (and (not x12) (and (not x7) (= x7 x8)))))))))))))) (|map[0:14]| x12 x9 x10 x11 x0 x7 x5 x3 x1 x8 x6 x4 x2 x14))))
(check-sat)
(get-model)
(exit)
